16,8	0,0	8,3	17,5	0,0	0,0	0,0	0,0	0,0	13,7
17,5	17,8	0,0	16,4	16,7	0,0	0,0	8,0	0,0	0,0
0,0	0,0	13,8	0,0	13,3	15,2	0,0	0,0	6,8	0,0
17,5	0,0	15,8	0,0	0,0	0,0	7,6	0,0	0,0	0,0
0,0	13,5	0,0	7,9	10,8	0,0	0,0	8,6	0,0	0,0
0,0	6,0	13,2	0,0	8,0	18,7	0,0	0,0	13,7	0,0
0,0	14,4	0,0	17,3	0,0	0,0	9,2	0,0	0,0	18,9
7,6	0,0	9,6	0,0	0,0	0,0	0,0	0,0	0,0	14,2
0,0	12,3	0,0	10,8	14,2	0,0	0,0	16,1	0,0	0,0
0,0	0,0	6,3	0,0	0,0	14,8	14,0	0,0	0,0	11,6
0,0	18,0	0,0	0,0	7,9	0,0	5,6	0,0	12,1	5,5
14,8	0,0	10,3	0,0	10,6	0,0	9,6	10,2	15,6	0,0
0,0	8,9	0,0	0,0	0,0	17,6	0,0	19,8	10,2	5,6
5,3	16,2	12,9	0,0	0,0	12,6	0,0	10,7	18,2	0,0
13,3	0,0	14,9	0,0	16,4	9,2	11,2	18,7	0,0	0,0
0,0	7,8	0,0	7,1	0,0	18,0	0,0	14,6	0,0	0,0
13,8	0,0	15,0	9,8	13,6	0,0	0,0	12,2	0,0	0,0
0,0	0,0	15,5	0,0	0,0	13,4	14,9	0,0	16,2	15,9
8,2	0,0	0,0	15,3	11,8	9,3	15,5	19,7	0,0	11,7
0,0	19,1	0,0	17,6	0,0	0,0	13,7	0,0	15,8	5,3
									
4,3	4,5	3,5	3,5	4,8	3,3	3,2	3,9	3,1	3,4
